10
0 99 17 74 13 24 13 60 96 49 
100 0 45 29 19 6 14 50 68 29 
59 68 0 76 24 50 35 63 87 27 
50 15 43 0 38 79 64 3 81 60 
5 86 14 43 0 69 39 84 60 62 
69 61 52 44 37 0 91 48 5 12 
45 62 68 57 93 27 0 56 46 63 
46 74 18 100 20 13 47 0 100 28 
96 33 77 37 74 7 6 58 0 46 
36 87 41 5 17 37 95 60 73 0 
